data/lp_files/pEFS/39_4.lp
\ Model foo
\ LP format - for model browsing. Use MPS format to capture full model detail.
Minimize
  z
Subject To
 allocateEach[1]: x[1,1] + x[2,1] = 1
 allocateEach[2]: x[1,2] + x[2,2] = 1
 allocateEach[3]: x[1,3] + x[2,3] = 1
 allocateEach[4]: x[1,4] + x[2,4] = 1
 allocateEach[5]: x[1,5] + x[2,5] = 1
 allocateEach[6]: x[1,6] + x[2,6] = 1
 allocateEach[7]: x[1,7] + x[2,7] = 1
 allocateEach[8]: x[1,8] + x[2,8] = 1
 allocateEach[9]: x[1,9] + x[2,9] = 1
 allocateEach[10]: x[1,10] + x[2,10] = 1
 allocateEach[11]: x[1,11] + x[2,11] = 1
 allocateEach[12]: x[1,12] + x[2,12] = 1
 allocateEach[13]: x[1,13] + x[2,13] = 1
 allocateEach[14]: x[1,14] + x[2,14] = 1
 allocateEach[15]: x[1,15] + x[2,15] = 1
 allocateEach[16]: x[1,16] + x[2,16] = 1
 allocateEach[17]: x[1,17] + x[2,17] = 1
 allocateEach[18]: x[1,18] + x[2,18] = 1
 allocateEach[19]: x[1,19] + x[2,19] = 1
 allocateAllCash: cashProportion[1] + cashProportion[2] = 1
 findWorstP[1,2]: z + 0.0291779974556786 cashProportion[1]
   - 0.0291779974556786 cashProportion[2] + 0.0927977031080403 x[1,1]
   + 0.00402656364888365 x[1,2] + 0.0581925981256054 x[1,3]
   + 0.1165135794400158 x[1,4] + 0.00266103336795789 x[1,5]
   + 0.0593713892228149 x[1,6] + 0.088957878642873 x[1,7]
   + 0.0761429021603389 x[1,8] + 0.073481868792381 x[1,9]
   + 0.0876740467548231 x[1,10] + 0.0670160245562026 x[1,11]
   + 0.0145423139319102 x[1,12] + 0.024462833066841 x[1,13]
   + 0.0157094338301374 x[1,14] + 0.0114844597985551 x[1,15]
   + 0.048155367000852 x[1,16] + 0.0700505362915932 x[1,17]
   + 0.0476535054446143 x[1,18] + 0.0119279653598814 x[1,19]
   - 0.0927977031080403 x[2,1] - 0.00402656364888365 x[2,2]
   - 0.0581925981256054 x[2,3] - 0.1165135794400158 x[2,4]
   - 0.00266103336795789 x[2,5] - 0.0593713892228149 x[2,6]
   - 0.088957878642873 x[2,7] - 0.0761429021603389 x[2,8]
   - 0.073481868792381 x[2,9] - 0.0876740467548231 x[2,10]
   - 0.0670160245562026 x[2,11] - 0.0145423139319102 x[2,12]
   - 0.024462833066841 x[2,13] - 0.0157094338301374 x[2,14]
   - 0.0114844597985551 x[2,15] - 0.048155367000852 x[2,16]
   - 0.0700505362915932 x[2,17] - 0.0476535054446143 x[2,18]
   - 0.0119279653598814 x[2,19] >= 0
 findWorstP[2,1]: z - 0.0269329799726361 cashProportion[1]
   + 0.0269329799726361 cashProportion[2] - 0.0428018917725133 x[1,1]
   - 0.0102776251575579 x[1,2] - 0.0312961227282031 x[1,3]
   - 0.00717494586471026 x[1,4] - 0.0925093996100104 x[1,5]
   - 0.0710815207437812 x[1,6] - 0.00921107915064154 x[1,7]
   - 0.1045215086778061 x[1,8] - 0.1006000667937903 x[1,9]
   - 0.058573844844489 x[1,10] - 0.060362194714672 x[1,11]
   - 0.1036057873587365 x[1,12] - 0.0662335843487067 x[1,13]
   - 0.0757247664910636 x[1,14] - 0.0188423127888562 x[1,15]
   - 0.034237204141215 x[1,16] - 0.0688837895780141 x[1,17]
   - 0.0170755093026513 x[1,18] - 5.3866e-05 x[1,19]
   + 0.0428018917725133 x[2,1] + 0.0102776251575579 x[2,2]
   + 0.0312961227282031 x[2,3] + 0.00717494586471026 x[2,4]
   + 0.0925093996100104 x[2,5] + 0.0710815207437812 x[2,6]
   + 0.00921107915064154 x[2,7] + 0.1045215086778061 x[2,8]
   + 0.1006000667937903 x[2,9] + 0.058573844844489 x[2,10]
   + 0.060362194714672 x[2,11] + 0.1036057873587365 x[2,12]
   + 0.0662335843487067 x[2,13] + 0.0757247664910636 x[2,14]
   + 0.0188423127888562 x[2,15] + 0.034237204141215 x[2,16]
   + 0.0688837895780141 x[2,17] + 0.0170755093026513 x[2,18]
   + 5.3866e-05 x[2,19] >= 0
Bounds
 z <= 1
 -infinity <= cashProportion[1] <= 1
 -infinity <= cashProportion[2] <= 1
Binaries
 x[1,1] x[1,2] x[1,3] x[1,4] x[1,5] x[1,6] x[1,7] x[1,8] x[1,9] x[1,10]
 x[1,11] x[1,12] x[1,13] x[1,14] x[1,15] x[1,16] x[1,17] x[1,18] x[1,19]
 x[2,1] x[2,2] x[2,3] x[2,4] x[2,5] x[2,6] x[2,7] x[2,8] x[2,9] x[2,10]
 x[2,11] x[2,12] x[2,13] x[2,14] x[2,15] x[2,16] x[2,17] x[2,18] x[2,19]
End
