data/mps_files/pEFS/39_4.mps
NAME foo
ROWS
 N  OBJ
 E  allocateEach[1]
 E  allocateEach[2]
 E  allocateEach[3]
 E  allocateEach[4]
 E  allocateEach[5]
 E  allocateEach[6]
 E  allocateEach[7]
 E  allocateEach[8]
 E  allocateEach[9]
 E  allocateEach[10]
 E  allocateEach[11]
 E  allocateEach[12]
 E  allocateEach[13]
 E  allocateEach[14]
 E  allocateEach[15]
 E  allocateEach[16]
 E  allocateEach[17]
 E  allocateEach[18]
 E  allocateEach[19]
 E  allocateAllCash
 G  findWorstP[1,2]
 G  findWorstP[2,1]
COLUMNS
    z         OBJ       1
    z         findWorstP[1,2]  1
    z         findWorstP[2,1]  1
    cashProportion[1]  allocateAllCash  1
    cashProportion[1]  findWorstP[1,2]  2.9177997455678617e-02
    cashProportion[1]  findWorstP[2,1]  -2.6932979972636089e-02
    cashProportion[2]  allocateAllCash  1
    cashProportion[2]  findWorstP[1,2]  -2.9177997455678617e-02
    cashProportion[2]  findWorstP[2,1]  2.6932979972636089e-02
    MARKER    'MARKER'                 'INTORG'
    x[1,1]    allocateEach[1]  1
    x[1,1]    findWorstP[1,2]  9.2797703108040280e-02
    x[1,1]    findWorstP[2,1]  -4.2801891772513270e-02
    x[1,2]    allocateEach[2]  1
    x[1,2]    findWorstP[1,2]  4.0265636488836494e-03
    x[1,2]    findWorstP[2,1]  -1.0277625157557931e-02
    x[1,3]    allocateEach[3]  1
    x[1,3]    findWorstP[1,2]  5.8192598125605434e-02
    x[1,3]    findWorstP[2,1]  -3.1296122728203132e-02
    x[1,4]    allocateEach[4]  1
    x[1,4]    findWorstP[1,2]  1.1651357944001585e-01
    x[1,4]    findWorstP[2,1]  -7.1749458647102551e-03
    x[1,5]    allocateEach[5]  1
    x[1,5]    findWorstP[1,2]  0.00266103336795789
    x[1,5]    findWorstP[2,1]  -9.2509399610010437e-02
    x[1,6]    allocateEach[6]  1
    x[1,6]    findWorstP[1,2]  5.9371389222814853e-02
    x[1,6]    findWorstP[2,1]  -7.1081520743781171e-02
    x[1,7]    allocateEach[7]  1
    x[1,7]    findWorstP[1,2]  8.8957878642872967e-02
    x[1,7]    findWorstP[2,1]  -9.2110791506415431e-03
    x[1,8]    allocateEach[8]  1
    x[1,8]    findWorstP[1,2]  7.6142902160338921e-02
    x[1,8]    findWorstP[2,1]  -1.0452150867780613e-01
    x[1,9]    allocateEach[9]  1
    x[1,9]    findWorstP[1,2]  7.3481868792381042e-02
    x[1,9]    findWorstP[2,1]  -1.0060006679379031e-01
    x[1,10]   allocateEach[10]  1
    x[1,10]   findWorstP[1,2]  8.7674046754823112e-02
    x[1,10]   findWorstP[2,1]  -5.8573844844488965e-02
    x[1,11]   allocateEach[11]  1
    x[1,11]   findWorstP[1,2]  6.7016024556202647e-02
    x[1,11]   findWorstP[2,1]  -0.060362194714672
    x[1,12]   allocateEach[12]  1
    x[1,12]   findWorstP[1,2]  1.4542313931910224e-02
    x[1,12]   findWorstP[2,1]  -1.0360578735873650e-01
    x[1,13]   allocateEach[13]  1
    x[1,13]   findWorstP[1,2]  2.4462833066840953e-02
    x[1,13]   findWorstP[2,1]  -6.6233584348706673e-02
    x[1,14]   allocateEach[14]  1
    x[1,14]   findWorstP[1,2]  1.5709433830137367e-02
    x[1,14]   findWorstP[2,1]  -7.5724766491063619e-02
    x[1,15]   allocateEach[15]  1
    x[1,15]   findWorstP[1,2]  1.1484459798555105e-02
    x[1,15]   findWorstP[2,1]  -1.8842312788856209e-02
    x[1,16]   allocateEach[16]  1
    x[1,16]   findWorstP[1,2]  4.8155367000851990e-02
    x[1,16]   findWorstP[2,1]  -0.034237204141215
    x[1,17]   allocateEach[17]  1
    x[1,17]   findWorstP[1,2]  7.0050536291593218e-02
    x[1,17]   findWorstP[2,1]  -6.8883789578014054e-02
    x[1,18]   allocateEach[18]  1
    x[1,18]   findWorstP[1,2]  4.7653505444614316e-02
    x[1,18]   findWorstP[2,1]  -1.7075509302651282e-02
    x[1,19]   allocateEach[19]  1
    x[1,19]   findWorstP[1,2]  1.1927965359881419e-02
    x[1,19]   findWorstP[2,1]  -5.3865959945272178e-05
    x[2,1]    allocateEach[1]  1
    x[2,1]    findWorstP[1,2]  -9.2797703108040280e-02
    x[2,1]    findWorstP[2,1]  4.2801891772513270e-02
    x[2,2]    allocateEach[2]  1
    x[2,2]    findWorstP[1,2]  -4.0265636488836494e-03
    x[2,2]    findWorstP[2,1]  1.0277625157557931e-02
    x[2,3]    allocateEach[3]  1
    x[2,3]    findWorstP[1,2]  -5.8192598125605434e-02
    x[2,3]    findWorstP[2,1]  3.1296122728203132e-02
    x[2,4]    allocateEach[4]  1
    x[2,4]    findWorstP[1,2]  -1.1651357944001585e-01
    x[2,4]    findWorstP[2,1]  7.1749458647102551e-03
    x[2,5]    allocateEach[5]  1
    x[2,5]    findWorstP[1,2]  -0.00266103336795789
    x[2,5]    findWorstP[2,1]  9.2509399610010437e-02
    x[2,6]    allocateEach[6]  1
    x[2,6]    findWorstP[1,2]  -5.9371389222814853e-02
    x[2,6]    findWorstP[2,1]  7.1081520743781171e-02
    x[2,7]    allocateEach[7]  1
    x[2,7]    findWorstP[1,2]  -8.8957878642872967e-02
    x[2,7]    findWorstP[2,1]  9.2110791506415431e-03
    x[2,8]    allocateEach[8]  1
    x[2,8]    findWorstP[1,2]  -7.6142902160338921e-02
    x[2,8]    findWorstP[2,1]  1.0452150867780613e-01
    x[2,9]    allocateEach[9]  1
    x[2,9]    findWorstP[1,2]  -7.3481868792381042e-02
    x[2,9]    findWorstP[2,1]  1.0060006679379031e-01
    x[2,10]   allocateEach[10]  1
    x[2,10]   findWorstP[1,2]  -8.7674046754823112e-02
    x[2,10]   findWorstP[2,1]  5.8573844844488965e-02
    x[2,11]   allocateEach[11]  1
    x[2,11]   findWorstP[1,2]  -6.7016024556202647e-02
    x[2,11]   findWorstP[2,1]  0.060362194714672
    x[2,12]   allocateEach[12]  1
    x[2,12]   findWorstP[1,2]  -1.4542313931910224e-02
    x[2,12]   findWorstP[2,1]  1.0360578735873650e-01
    x[2,13]   allocateEach[13]  1
    x[2,13]   findWorstP[1,2]  -2.4462833066840953e-02
    x[2,13]   findWorstP[2,1]  6.6233584348706673e-02
    x[2,14]   allocateEach[14]  1
    x[2,14]   findWorstP[1,2]  -1.5709433830137367e-02
    x[2,14]   findWorstP[2,1]  7.5724766491063619e-02
    x[2,15]   allocateEach[15]  1
    x[2,15]   findWorstP[1,2]  -1.1484459798555105e-02
    x[2,15]   findWorstP[2,1]  1.8842312788856209e-02
    x[2,16]   allocateEach[16]  1
    x[2,16]   findWorstP[1,2]  -4.8155367000851990e-02
    x[2,16]   findWorstP[2,1]  0.034237204141215
    x[2,17]   allocateEach[17]  1
    x[2,17]   findWorstP[1,2]  -7.0050536291593218e-02
    x[2,17]   findWorstP[2,1]  6.8883789578014054e-02
    x[2,18]   allocateEach[18]  1
    x[2,18]   findWorstP[1,2]  -4.7653505444614316e-02
    x[2,18]   findWorstP[2,1]  1.7075509302651282e-02
    x[2,19]   allocateEach[19]  1
    x[2,19]   findWorstP[1,2]  -1.1927965359881419e-02
    x[2,19]   findWorstP[2,1]  5.3865959945272178e-05
    MARKER    'MARKER'                 'INTEND'
RHS
    RHS1      allocateEach[1]  1
    RHS1      allocateEach[2]  1
    RHS1      allocateEach[3]  1
    RHS1      allocateEach[4]  1
    RHS1      allocateEach[5]  1
    RHS1      allocateEach[6]  1
    RHS1      allocateEach[7]  1
    RHS1      allocateEach[8]  1
    RHS1      allocateEach[9]  1
    RHS1      allocateEach[10]  1
    RHS1      allocateEach[11]  1
    RHS1      allocateEach[12]  1
    RHS1      allocateEach[13]  1
    RHS1      allocateEach[14]  1
    RHS1      allocateEach[15]  1
    RHS1      allocateEach[16]  1
    RHS1      allocateEach[17]  1
    RHS1      allocateEach[18]  1
    RHS1      allocateEach[19]  1
    RHS1      allocateAllCash  1
BOUNDS
 UP BND1      z         1
 MI BND1      cashProportion[1]
 UP BND1      cashProportion[1]  1
 MI BND1      cashProportion[2]
 UP BND1      cashProportion[2]  1
 BV BND1      x[1,1]  
 BV BND1      x[1,2]  
 BV BND1      x[1,3]  
 BV BND1      x[1,4]  
 BV BND1      x[1,5]  
 BV BND1      x[1,6]  
 BV BND1      x[1,7]  
 BV BND1      x[1,8]  
 BV BND1      x[1,9]  
 BV BND1      x[1,10] 
 BV BND1      x[1,11] 
 BV BND1      x[1,12] 
 BV BND1      x[1,13] 
 BV BND1      x[1,14] 
 BV BND1      x[1,15] 
 BV BND1      x[1,16] 
 BV BND1      x[1,17] 
 BV BND1      x[1,18] 
 BV BND1      x[1,19] 
 BV BND1      x[2,1]  
 BV BND1      x[2,2]  
 BV BND1      x[2,3]  
 BV BND1      x[2,4]  
 BV BND1      x[2,5]  
 BV BND1      x[2,6]  
 BV BND1      x[2,7]  
 BV BND1      x[2,8]  
 BV BND1      x[2,9]  
 BV BND1      x[2,10] 
 BV BND1      x[2,11] 
 BV BND1      x[2,12] 
 BV BND1      x[2,13] 
 BV BND1      x[2,14] 
 BV BND1      x[2,15] 
 BV BND1      x[2,16] 
 BV BND1      x[2,17] 
 BV BND1      x[2,18] 
 BV BND1      x[2,19] 
ENDATA
